Minimize
3 x_T3_C1_Day_2 + 3 x_T1_C2_Day_3 + 3 x_T1_C3_Day_1 + 3 x_T1_C1_Day_1 + 3 x_T1_C3_Day_3 + 1 g_T4_C4 + 3 x_T2_C1_Day_2 + 3 x_T2_C4_Day_1 + 1 g_T1_C3 + 3 x_T4_C3_Day_4 + 3 x_T4_C4_Day_4 + 3 x_T3_C3_Day_2 + 3 x_T2_C2_Day_3 + 1 g_T4_C2 + 1 g_T4_C3 + 3 x_T1_C2_Day_4 + 3 x_T4_C3_Day_3 + 1 g_T2_C3 + 3 x_T4_C3_Day_2 + 1 g_T3_C2 + 3 x_T4_C2_Day_3 + 3 x_T4_C4_Day_1 + 3 x_T3_C1_Day_3 + 3 x_T1_C1_Day_4 + 3 x_T3_C3_Day_4 + 3 x_T3_C2_Day_2 + 1 g_T3_C4 + 3 x_T2_C4_Day_2 + 3 x_T1_C1_Day_2 + 3 x_T1_C4_Day_1 + 3 x_T4_C2_Day_4 + 3 x_T1_C2_Day_2 + 3 x_T3_C3_Day_1 + 3 x_T3_C3_Day_3 + 1 g_T1_C2 + 3 x_T1_C4_Day_3 + 3 x_T2_C4_Day_4 + 3 x_T4_C1_Day_3 + 3 x_T2_C1_Day_4 + 3 x_T3_C2_Day_4 + 3 x_T3_C4_Day_1 + 1 g_T3_C3 + 3 x_T3_C4_Day_3 + 3 x_T1_C3_Day_2 + 3 x_T4_C1_Day_2 + 9 y_T2 + 3 x_T4_C1_Day_4 + 3 x_T1_C4_Day_4 + 3 x_T2_C2_Day_2 + 3 x_T4_C3_Day_1 + 3 x_T2_C3_Day_2 + 1 g_T2_C1 + 3 x_T4_C2_Day_1 + 3 x_T3_C4_Day_4 + 1 g_T3_C1 + 3 x_T2_C3_Day_4 + 3 x_T2_C4_Day_3 + 1 g_T4_C1 + 3 x_T4_C4_Day_2 + 1 g_T2_C2 + 1 g_T1_C4 + 3 x_T4_C2_Day_2 + 3 x_T2_C2_Day_1 + 3 x_T2_C2_Day_4 + 3 x_T3_C2_Day_3 + 3 x_T4_C4_Day_3 + 3 x_T1_C3_Day_4 + 3 x_T2_C3_Day_1 + 3 x_T2_C3_Day_3 + 3 x_T1_C1_Day_3 + 3 x_T3_C2_Day_1 + 3 x_T2_C1_Day_3 + 9 y_T3 + 3 x_T3_C1_Day_4 + 3 x_T3_C4_Day_2 + 3 x_T1_C2_Day_1 + 9 y_T4 + 3 x_T3_C1_Day_1 + 1 g_T2_C4 + 3 x_T2_C1_Day_1 + 3 x_T4_C1_Day_1 + 1 g_T1_C1 + 9 y_T1 + 3 x_T1_C4_Day_2
Subject To
 event_E1_timeslot: x_T1_C1_Day_1 + x_T1_C1_Day_2 + x_T1_C1_Day_3 + x_T1_C1_Day_4 = 1
 event_E2_timeslot: x_T2_C1_Day_1 + x_T2_C1_Day_2 + x_T2_C1_Day_3 + x_T2_C1_Day_4 = 1
 event_E3_timeslot: x_T3_C1_Day_1 + x_T3_C1_Day_2 + x_T3_C1_Day_3 + x_T3_C1_Day_4 = 1
 event_E4_timeslot: x_T4_C1_Day_1 + x_T4_C1_Day_2 + x_T4_C1_Day_3 + x_T4_C1_Day_4 = 1
 event_E5_timeslot: x_T1_C2_Day_1 + x_T1_C2_Day_2 + x_T1_C2_Day_3 + x_T1_C2_Day_4 = 1
 event_E6_timeslot: x_T2_C2_Day_1 + x_T2_C2_Day_2 + x_T2_C2_Day_3 + x_T2_C2_Day_4 = 1
 event_E7_timeslot: x_T3_C2_Day_1 + x_T3_C2_Day_2 + x_T3_C2_Day_3 + x_T3_C2_Day_4 = 1
 event_E8_timeslot: x_T4_C2_Day_1 + x_T4_C2_Day_2 + x_T4_C2_Day_3 + x_T4_C2_Day_4 = 1
 event_E9_timeslot: x_T1_C3_Day_1 + x_T1_C3_Day_2 + x_T1_C3_Day_3 + x_T1_C3_Day_4 = 1
 event_E10_timeslot: x_T2_C3_Day_1 + x_T2_C3_Day_2 + x_T2_C3_Day_3 + x_T2_C3_Day_4 = 1
 event_E11_timeslot: x_T3_C3_Day_1 + x_T3_C3_Day_2 + x_T3_C3_Day_3 + x_T3_C3_Day_4 = 1
 event_E12_timeslot: x_T4_C3_Day_1 + x_T4_C3_Day_2 + x_T4_C3_Day_3 + x_T4_C3_Day_4 = 1
 event_E13_timeslot: x_T1_C4_Day_1 + x_T1_C4_Day_2 + x_T1_C4_Day_3 + x_T1_C4_Day_4 = 1
 event_E14_timeslot: x_T2_C4_Day_1 + x_T2_C4_Day_2 + x_T2_C4_Day_3 + x_T2_C4_Day_4 = 1
 event_E15_timeslot: x_T3_C4_Day_1 + x_T3_C4_Day_2 + x_T3_C4_Day_3 + x_T3_C4_Day_4 = 1
 event_E16_timeslot: x_T4_C4_Day_1 + x_T4_C4_Day_2 + x_T4_C4_Day_3 + x_T4_C4_Day_4 = 1
 H1_T1_C1: x_T1_C1_Day_1 + x_T1_C1_Day_2 + x_T1_C1_Day_3 + x_T1_C1_Day_4 = 1
 H1_T2_C1: x_T2_C1_Day_1 + x_T2_C1_Day_2 + x_T2_C1_Day_3 + x_T2_C1_Day_4 = 1
 H1_T3_C1: x_T3_C1_Day_1 + x_T3_C1_Day_2 + x_T3_C1_Day_3 + x_T3_C1_Day_4 = 1
 H1_T4_C1: x_T4_C1_Day_1 + x_T4_C1_Day_2 + x_T4_C1_Day_3 + x_T4_C1_Day_4 = 1
 H1_T1_C2: x_T1_C2_Day_1 + x_T1_C2_Day_2 + x_T1_C2_Day_3 + x_T1_C2_Day_4 = 1
 H1_T2_C2: x_T2_C2_Day_1 + x_T2_C2_Day_2 + x_T2_C2_Day_3 + x_T2_C2_Day_4 = 1
 H1_T3_C2: x_T3_C2_Day_1 + x_T3_C2_Day_2 + x_T3_C2_Day_3 + x_T3_C2_Day_4 = 1
 H1_T4_C2: x_T4_C2_Day_1 + x_T4_C2_Day_2 + x_T4_C2_Day_3 + x_T4_C2_Day_4 = 1
 H1_T1_C3: x_T1_C3_Day_1 + x_T1_C3_Day_2 + x_T1_C3_Day_3 + x_T1_C3_Day_4 = 1
 H1_T2_C3: x_T2_C3_Day_1 + x_T2_C3_Day_2 + x_T2_C3_Day_3 + x_T2_C3_Day_4 = 1
 H1_T3_C3: x_T3_C3_Day_1 + x_T3_C3_Day_2 + x_T3_C3_Day_3 + x_T3_C3_Day_4 = 1
 H1_T4_C3: x_T4_C3_Day_1 + x_T4_C3_Day_2 + x_T4_C3_Day_3 + x_T4_C3_Day_4 = 1
 H1_T1_C4: x_T1_C4_Day_1 + x_T1_C4_Day_2 + x_T1_C4_Day_3 + x_T1_C4_Day_4 = 1
 H1_T2_C4: x_T2_C4_Day_1 + x_T2_C4_Day_2 + x_T2_C4_Day_3 + x_T2_C4_Day_4 = 1
 H1_T3_C4: x_T3_C4_Day_1 + x_T3_C4_Day_2 + x_T3_C4_Day_3 + x_T3_C4_Day_4 = 1
 H1_T4_C4: x_T4_C4_Day_1 + x_T4_C4_Day_2 + x_T4_C4_Day_3 + x_T4_C4_Day_4 = 1
 H2_T3_time_Day_1: x_T3_C1_Day_1 + x_T3_C2_Day_1 + x_T3_C3_Day_1 + x_T3_C4_Day_1 <= 1
 H2_T3_time_Day_2: x_T3_C1_Day_2 + x_T3_C2_Day_2 + x_T3_C3_Day_2 + x_T3_C4_Day_2 <= 1
 H2_T3_time_Day_3: x_T3_C1_Day_3 + x_T3_C2_Day_3 + x_T3_C3_Day_3 + x_T3_C4_Day_3 <= 1
 H2_T3_time_Day_4: x_T3_C1_Day_4 + x_T3_C2_Day_4 + x_T3_C3_Day_4 + x_T3_C4_Day_4 <= 1
 H2_T4_time_Day_1: x_T4_C1_Day_1 + x_T4_C2_Day_1 + x_T4_C3_Day_1 + x_T4_C4_Day_1 <= 1
 H2_T4_time_Day_2: x_T4_C1_Day_2 + x_T4_C2_Day_2 + x_T4_C3_Day_2 + x_T4_C4_Day_2 <= 1
 H2_T4_time_Day_3: x_T4_C1_Day_3 + x_T4_C2_Day_3 + x_T4_C3_Day_3 + x_T4_C4_Day_3 <= 1
 H2_T4_time_Day_4: x_T4_C1_Day_4 + x_T4_C2_Day_4 + x_T4_C3_Day_4 + x_T4_C4_Day_4 <= 1
 H2_T1_time_Day_1: x_T1_C1_Day_1 + x_T1_C2_Day_1 + x_T1_C3_Day_1 + x_T1_C4_Day_1 <= 1
 H2_T1_time_Day_2: x_T1_C1_Day_2 + x_T1_C2_Day_2 + x_T1_C3_Day_2 + x_T1_C4_Day_2 <= 1
 H2_T1_time_Day_3: x_T1_C1_Day_3 + x_T1_C2_Day_3 + x_T1_C3_Day_3 + x_T1_C4_Day_3 <= 1
 H2_T1_time_Day_4: x_T1_C1_Day_4 + x_T1_C2_Day_4 + x_T1_C3_Day_4 + x_T1_C4_Day_4 <= 1
 H2_T2_time_Day_1: x_T2_C1_Day_1 + x_T2_C2_Day_1 + x_T2_C3_Day_1 + x_T2_C4_Day_1 <= 1
 H2_T2_time_Day_2: x_T2_C1_Day_2 + x_T2_C2_Day_2 + x_T2_C3_Day_2 + x_T2_C4_Day_2 <= 1
 H2_T2_time_Day_3: x_T2_C1_Day_3 + x_T2_C2_Day_3 + x_T2_C3_Day_3 + x_T2_C4_Day_3 <= 1
 H2_T2_time_Day_4: x_T2_C1_Day_4 + x_T2_C2_Day_4 + x_T2_C3_Day_4 + x_T2_C4_Day_4 <= 1
 H3_C1_time_Day_1: x_T1_C1_Day_1 + x_T2_C1_Day_1 + x_T3_C1_Day_1 + x_T4_C1_Day_1 <= 1
 H3_C1_time_Day_2: x_T1_C1_Day_2 + x_T2_C1_Day_2 + x_T3_C1_Day_2 + x_T4_C1_Day_2 <= 1
 H3_C1_time_Day_3: x_T1_C1_Day_3 + x_T2_C1_Day_3 + x_T3_C1_Day_3 + x_T4_C1_Day_3 <= 1
 H3_C1_time_Day_4: x_T1_C1_Day_4 + x_T2_C1_Day_4 + x_T3_C1_Day_4 + x_T4_C1_Day_4 <= 1
 H3_C4_time_Day_1: x_T1_C4_Day_1 + x_T2_C4_Day_1 + x_T3_C4_Day_1 + x_T4_C4_Day_1 <= 1
 H3_C4_time_Day_2: x_T1_C4_Day_2 + x_T2_C4_Day_2 + x_T3_C4_Day_2 + x_T4_C4_Day_2 <= 1
 H3_C4_time_Day_3: x_T1_C4_Day_3 + x_T2_C4_Day_3 + x_T3_C4_Day_3 + x_T4_C4_Day_3 <= 1
 H3_C4_time_Day_4: x_T1_C4_Day_4 + x_T2_C4_Day_4 + x_T3_C4_Day_4 + x_T4_C4_Day_4 <= 1
 H3_C3_time_Day_1: x_T1_C3_Day_1 + x_T2_C3_Day_1 + x_T3_C3_Day_1 + x_T4_C3_Day_1 <= 1
 H3_C3_time_Day_2: x_T1_C3_Day_2 + x_T2_C3_Day_2 + x_T3_C3_Day_2 + x_T4_C3_Day_2 <= 1
 H3_C3_time_Day_3: x_T1_C3_Day_3 + x_T2_C3_Day_3 + x_T3_C3_Day_3 + x_T4_C3_Day_3 <= 1
 H3_C3_time_Day_4: x_T1_C3_Day_4 + x_T2_C3_Day_4 + x_T3_C3_Day_4 + x_T4_C3_Day_4 <= 1
 H3_C2_time_Day_1: x_T1_C2_Day_1 + x_T2_C2_Day_1 + x_T3_C2_Day_1 + x_T4_C2_Day_1 <= 1
 H3_C2_time_Day_2: x_T1_C2_Day_2 + x_T2_C2_Day_2 + x_T3_C2_Day_2 + x_T4_C2_Day_2 <= 1
 H3_C2_time_Day_3: x_T1_C2_Day_3 + x_T2_C2_Day_3 + x_T3_C2_Day_3 + x_T4_C2_Day_3 <= 1
 H3_C2_time_Day_4: x_T1_C2_Day_4 + x_T2_C2_Day_4 + x_T3_C2_Day_4 + x_T4_C2_Day_4 <= 1
 S1_T3_time_Day_1: idle_T3_Day_1 - x_T3_C1_Day_1 - x_T3_C1_Day_2 - x_T3_C2_Day_1 - x_T3_C2_Day_2 - x_T3_C3_Day_1 - x_T3_C3_Day_2 - x_T3_C4_Day_1 - x_T3_C4_Day_2 >= 0
 S1_T3_time_Day_2: idle_T3_Day_2 - x_T3_C1_Day_2 - x_T3_C1_Day_3 - x_T3_C2_Day_2 - x_T3_C2_Day_3 - x_T3_C3_Day_2 - x_T3_C3_Day_3 - x_T3_C4_Day_2 - x_T3_C4_Day_3 >= 0
 S1_T3_time_Day_3: idle_T3_Day_3 - x_T3_C1_Day_3 - x_T3_C1_Day_4 - x_T3_C2_Day_3 - x_T3_C2_Day_4 - x_T3_C3_Day_3 - x_T3_C3_Day_4 - x_T3_C4_Day_3 - x_T3_C4_Day_4 >= 0
 S1_T4_time_Day_1: idle_T4_Day_1 - x_T4_C1_Day_1 - x_T4_C1_Day_2 - x_T4_C2_Day_1 - x_T4_C2_Day_2 - x_T4_C3_Day_1 - x_T4_C3_Day_2 - x_T4_C4_Day_1 - x_T4_C4_Day_2 >= 0
 S1_T4_time_Day_2: idle_T4_Day_2 - x_T4_C1_Day_2 - x_T4_C1_Day_3 - x_T4_C2_Day_2 - x_T4_C2_Day_3 - x_T4_C3_Day_2 - x_T4_C3_Day_3 - x_T4_C4_Day_2 - x_T4_C4_Day_3 >= 0
 S1_T4_time_Day_3: idle_T4_Day_3 - x_T4_C1_Day_3 - x_T4_C1_Day_4 - x_T4_C2_Day_3 - x_T4_C2_Day_4 - x_T4_C3_Day_3 - x_T4_C3_Day_4 - x_T4_C4_Day_3 - x_T4_C4_Day_4 >= 0
 S1_T1_time_Day_1: idle_T1_Day_1 - x_T1_C1_Day_1 - x_T1_C1_Day_2 - x_T1_C2_Day_1 - x_T1_C2_Day_2 - x_T1_C3_Day_1 - x_T1_C3_Day_2 - x_T1_C4_Day_1 - x_T1_C4_Day_2 >= 0
 S1_T1_time_Day_2: idle_T1_Day_2 - x_T1_C1_Day_2 - x_T1_C1_Day_3 - x_T1_C2_Day_2 - x_T1_C2_Day_3 - x_T1_C3_Day_2 - x_T1_C3_Day_3 - x_T1_C4_Day_2 - x_T1_C4_Day_3 >= 0
 S1_T1_time_Day_3: idle_T1_Day_3 - x_T1_C1_Day_3 - x_T1_C1_Day_4 - x_T1_C2_Day_3 - x_T1_C2_Day_4 - x_T1_C3_Day_3 - x_T1_C3_Day_4 - x_T1_C4_Day_3 - x_T1_C4_Day_4 >= 0
 S1_T2_time_Day_1: idle_T2_Day_1 - x_T2_C1_Day_1 - x_T2_C1_Day_2 - x_T2_C2_Day_1 - x_T2_C2_Day_2 - x_T2_C3_Day_1 - x_T2_C3_Day_2 - x_T2_C4_Day_1 - x_T2_C4_Day_2 >= 0
 S1_T2_time_Day_2: idle_T2_Day_2 - x_T2_C1_Day_2 - x_T2_C1_Day_3 - x_T2_C2_Day_2 - x_T2_C2_Day_3 - x_T2_C3_Day_2 - x_T2_C3_Day_3 - x_T2_C4_Day_2 - x_T2_C4_Day_3 >= 0
 S1_T2_time_Day_3: idle_T2_Day_3 - x_T2_C1_Day_3 - x_T2_C1_Day_4 - x_T2_C2_Day_3 - x_T2_C2_Day_4 - x_T2_C3_Day_3 - x_T2_C3_Day_4 - x_T2_C4_Day_3 - x_T2_C4_Day_4 >= 0
 S2_T3_group_Day: days_T3 - x_T3_Day_1 - x_T3_Day_2 - x_T3_Day_3 - x_T3_Day_4 >= 0
 S2_T4_group_Day: days_T4 - x_T4_Day_1 - x_T4_Day_2 - x_T4_Day_3 - x_T4_Day_4 >= 0
 S2_T1_group_Day: days_T1 - x_T1_Day_1 - x_T1_Day_2 - x_T1_Day_3 - x_T1_Day_4 >= 0
 S2_T2_group_Day: days_T2 - x_T2_Day_1 - x_T2_Day_2 - x_T2_Day_3 - x_T2_Day_4 >= 0
Binary
  x_T2_C1_Day_3
  x_T4_C3_Day_4
  x_T1_C4_Day_1
  g_T2_C4
  g_T3_C4
  x_T2_C2_Day_1
  x_T3_C2_Day_3
  x_T3_C3_Day_1
  x_T4_C4_Day_2
  g_T4_C3
  x_T3_C3_Day_4
  x_T4_C4_Day_3
  x_T4_C3_Day_1
  x_T1_C2_Day_1
  x_T3_C1_Day_4
  x_T3_C4_Day_2
  x_T4_C3_Day_2
  x_T3_C2_Day_2
  y_T1
  g_T2_C3
  g_T1_C2
  g_T4_C2
  x_T3_C2_Day_1
  x_T4_C4_Day_1
  x_T2_C4_Day_1
  g_T4_C4
  x_T2_C1_Day_1
  x_T1_C3_Day_2
  x_T1_C2_Day_3
  x_T1_C4_Day_4
  x_T4_C2_Day_2
  x_T1_C4_Day_2
  x_T2_C4_Day_4
  x_T4_C2_Day_1
  x_T2_C4_Day_2
  x_T2_C3_Day_3
  x_T2_C3_Day_4
  x_T1_C4_Day_3
  x_T3_C4_Day_1
  x_T1_C3_Day_1
  g_T2_C1
  x_T4_C1_Day_3
  x_T2_C3_Day_1
  x_T1_C1_Day_1
  x_T3_C1_Day_1
  x_T4_C3_Day_3
  g_T4_C1
  g_T2_C2
  x_T1_C3_Day_3
  x_T3_C3_Day_3
  x_T1_C2_Day_2
  x_T3_C4_Day_3
  x_T2_C2_Day_4
  x_T2_C1_Day_4
  g_T3_C1
  x_T1_C1_Day_4
  g_T3_C2
  x_T4_C1_Day_2
  x_T3_C3_Day_2
  x_T3_C4_Day_4
  g_T3_C3
  x_T3_C2_Day_4
  y_T2
  x_T4_C1_Day_1
  x_T1_C1_Day_2
  x_T4_C2_Day_3
  x_T4_C1_Day_4
  x_T2_C4_Day_3
  g_T1_C1
  x_T2_C3_Day_2
  x_T1_C3_Day_4
  g_T1_C4
  x_T1_C2_Day_4
  x_T4_C4_Day_4
  y_T3
  x_T4_C2_Day_4
  x_T2_C2_Day_2
  x_T3_C1_Day_3
  x_T2_C1_Day_2
  x_T3_C1_Day_2
  y_T4
  x_T1_C1_Day_3
  x_T2_C2_Day_3
  g_T1_C3
End
